(set-info :smt-lib-version 2.6)
(set-info :category "crafted")
(set-logic QF_FF)
(define-sort FF0 () (_ FiniteField 52435875175126190479447740508185965837690552500527637822603658699938581184513))
(declare-fun x13 () Bool)
(declare-fun x12 () Bool)
(declare-fun x11 () Bool)
(declare-fun x10 () Bool)
(declare-fun x9 () Bool)
(declare-fun x8 () Bool)
(declare-fun x7 () Bool)
(declare-fun x6 () Bool)
(declare-fun x5 () Bool)
(declare-fun x4 () Bool)
(declare-fun x3 () Bool)
(declare-fun x2 () Bool)
(declare-fun x1 () Bool)
(declare-fun x0 () Bool)
(declare-fun return_n13 () FF0)
(declare-fun mul_n26 () FF0)
(declare-fun x12_n0 () FF0)
(declare-fun mul_n25 () FF0)
(declare-fun x11_n9 () FF0)
(declare-fun mul_n24 () FF0)
(declare-fun x10_n3 () FF0)
(declare-fun mul_n23 () FF0)
(declare-fun x9_n6 () FF0)
(declare-fun mul_n22 () FF0)
(declare-fun x8_n1 () FF0)
(declare-fun mul_n21 () FF0)
(declare-fun x7_n11 () FF0)
(declare-fun mul_n20 () FF0)
(declare-fun x6_n12 () FF0)
(declare-fun mul_n19 () FF0)
(declare-fun x5_n8 () FF0)
(declare-fun mul_n18 () FF0)
(declare-fun x4_n2 () FF0)
(declare-fun mul_n17 () FF0)
(declare-fun x3_n5 () FF0)
(declare-fun mul_n16 () FF0)
(declare-fun x2_n14 () FF0)
(declare-fun mul_n15 () FF0)
(declare-fun x1_n10 () FF0)
(declare-fun x0_n4 () FF0)
(declare-fun x13_n7 () FF0)
(assert 
  (let ((let0 x13))
  (let ((let1 x12))
  (let ((let2 x11))
  (let ((let3 x10))
  (let ((let4 x9))
  (let ((let5 x8))
  (let ((let6 x7))
  (let ((let7 x6))
  (let ((let8 x5))
  (let ((let9 x4))
  (let ((let10 x3))
  (let ((let11 x2))
  (let ((let12 x1))
  (let ((let13 x0))
  (let ((let14 (or let13 let12 let11 let10 let9 let8 let7 let6 let5 let4 let3 let2 let1 let0)))
  (let ((let15 return_n13))
  (let ((let16 (as ff1 FF0)))
  (let ((let17 (= let16 let15)))
  (let ((let18 (= let17 let14)))
  (let ((let19 (as ff0 FF0)))
  (let ((let20 (= let19 let15)))
  (let ((let21 (or let17 let20)))
  (let ((let22 (and let21 let18)))
  (let ((let23 mul_n26))
  (let ((let24 (as ff52435875175126190479447740508185965837690552500527637822603658699938581184512 FF0)))
  (let ((let25 x12_n0))
  (let ((let26 (ff.mul let25 let24)))
  (let ((let27 (ff.add let26 let16)))
  (let ((let28 mul_n25))
  (let ((let29 (ff.mul let28 let27)))
  (let ((let30 (= let29 let23)))
  (let ((let31 x11_n9))
  (let ((let32 (ff.mul let31 let24)))
  (let ((let33 (ff.add let32 let16)))
  (let ((let34 mul_n24))
  (let ((let35 (ff.mul let34 let33)))
  (let ((let36 (= let35 let28)))
  (let ((let37 x10_n3))
  (let ((let38 (ff.mul let37 let24)))
  (let ((let39 (ff.add let38 let16)))
  (let ((let40 mul_n23))
  (let ((let41 (ff.mul let40 let39)))
  (let ((let42 (= let41 let34)))
  (let ((let43 x9_n6))
  (let ((let44 (ff.mul let43 let24)))
  (let ((let45 (ff.add let44 let16)))
  (let ((let46 mul_n22))
  (let ((let47 (ff.mul let46 let45)))
  (let ((let48 (= let47 let40)))
  (let ((let49 x8_n1))
  (let ((let50 (ff.mul let49 let24)))
  (let ((let51 (ff.add let50 let16)))
  (let ((let52 mul_n21))
  (let ((let53 (ff.mul let52 let51)))
  (let ((let54 (= let53 let46)))
  (let ((let55 x7_n11))
  (let ((let56 (ff.mul let55 let24)))
  (let ((let57 (ff.add let56 let16)))
  (let ((let58 mul_n20))
  (let ((let59 (ff.mul let58 let57)))
  (let ((let60 (= let59 let52)))
  (let ((let61 x6_n12))
  (let ((let62 (ff.mul let61 let24)))
  (let ((let63 (ff.add let62 let16)))
  (let ((let64 mul_n19))
  (let ((let65 (ff.mul let64 let63)))
  (let ((let66 (= let65 let58)))
  (let ((let67 x5_n8))
  (let ((let68 (ff.mul let67 let24)))
  (let ((let69 (ff.add let68 let16)))
  (let ((let70 mul_n18))
  (let ((let71 (ff.mul let70 let69)))
  (let ((let72 (= let71 let64)))
  (let ((let73 x4_n2))
  (let ((let74 (ff.mul let73 let24)))
  (let ((let75 (ff.add let74 let16)))
  (let ((let76 mul_n17))
  (let ((let77 (ff.mul let76 let75)))
  (let ((let78 (= let77 let70)))
  (let ((let79 x3_n5))
  (let ((let80 (ff.mul let79 let24)))
  (let ((let81 (ff.add let80 let16)))
  (let ((let82 mul_n16))
  (let ((let83 (ff.mul let82 let81)))
  (let ((let84 (= let83 let76)))
  (let ((let85 x2_n14))
  (let ((let86 (ff.mul let85 let24)))
  (let ((let87 (ff.add let86 let16)))
  (let ((let88 mul_n15))
  (let ((let89 (ff.mul let88 let87)))
  (let ((let90 (= let89 let82)))
  (let ((let91 x1_n10))
  (let ((let92 (ff.mul let91 let24)))
  (let ((let93 (ff.add let92 let16)))
  (let ((let94 x0_n4))
  (let ((let95 (ff.mul let94 let24)))
  (let ((let96 (ff.add let95 let16)))
  (let ((let97 (ff.mul let96 let93)))
  (let ((let98 (= let97 let88)))
  (let ((let99 (and let98 let90 let84 let78 let72 let66 let60 let54 let48 let42 let36 let30)))
  (let ((let100 (ite let8 let16 let19)))
  (let ((let101 (= let67 let100)))
  (let ((let102 (ite let12 let16 let19)))
  (let ((let103 (= let91 let102)))
  (let ((let104 (ite let6 let16 let19)))
  (let ((let105 (= let55 let104)))
  (let ((let106 (ite let3 let16 let19)))
  (let ((let107 (= let37 let106)))
  (let ((let108 (ite let0 let16 let19)))
  (let ((let109 x13_n7))
  (let ((let110 (= let109 let108)))
  (let ((let111 (ite let4 let16 let19)))
  (let ((let112 (= let43 let111)))
  (let ((let113 (ite let9 let16 let19)))
  (let ((let114 (= let73 let113)))
  (let ((let115 (ite let1 let16 let19)))
  (let ((let116 (= let25 let115)))
  (let ((let117 (ite let2 let16 let19)))
  (let ((let118 (= let31 let117)))
  (let ((let119 (ite let10 let16 let19)))
  (let ((let120 (= let79 let119)))
  (let ((let121 (ite let11 let16 let19)))
  (let ((let122 (= let85 let121)))
  (let ((let123 (ite let7 let16 let19)))
  (let ((let124 (= let61 let123)))
  (let ((let125 (ite let13 let16 let19)))
  (let ((let126 (= let94 let125)))
  (let ((let127 (ite let5 let16 let19)))
  (let ((let128 (= let49 let127)))
  (let ((let129 (and let128 let126 let124 let122 let120 let118 let116 let114 let112 let110 let107 let105 let103 let101)))
  (let ((let130 (and let129 let99)))
  (let ((let131 (=> let130 let22)))
  (let ((let132 (not let131)))
  let132
)))))))))))))))))))))))))))))))))))))))))))))))))))))))))))))))))))))))))))))))))))))))))))))))))))))))))))))))))))))))))))))))))))))
)
(check-sat)
